NAME LSEU_pre
ROWS
 N  OBJ
 L  R101    
 E  R102    
 L  R103    
 L  R104    
 L  R105    
 L  R106    
 L  R107    
 L  R108    
 L  R109    
 L  R110    
 L  R111    
 L  R112    
 L  R113    
 L  R114    
 L  R115    
 L  R116    
 L  R117    
 L  R118    
 L  R119    
 L  R120    
 L  R121    
 L  R122    
 L  R123    
 L  R124    
 L  R125    
 L  R126    
 L  R127    
 L  R128    
COLUMNS
    MARKER    'MARKER'                 'INTORG'
    C101      OBJ       7
    C101      R119      105
    C101      R120      -105
    C101      R122      -105
    C101      R123      -105
    C102      OBJ       10
    C102      R119      100
    C102      R120      -100
    C102      R122      -100
    C102      R123      -100
    C103      OBJ       179
    C103      R101      1
    C103      R119      95
    C103      R120      -95
    C103      R124      -67
    C103      R125      -95
    C104      OBJ       186
    C104      R101      1
    C104      R119      95
    C104      R120      -95
    C104      R122      -95
    C104      R123      -95
    C105      OBJ       179
    C105      R101      1
    C105      R119      95
    C105      R120      -95
    C105      R122      -38
    C105      R123      -38
    C105      R124      -47
    C105      R125      -57
    C106      R102      1
    C106      R118      -1
    C107      R102      1
    C107      R124      -67
    C107      R125      -90
    C108      OBJ       6
    C108      R102      1
    C108      R122      -90
    C108      R123      -90
    C109      R102      1
    C109      R122      -33
    C109      R123      -33
    C109      R124      -47
    C109      R125      -57
    C111      OBJ       164
    C111      R103      1
    C111      R118      -1
    C112      OBJ       164
    C112      R103      1
    C112      R124      -67
    C112      R125      -87
    C113      OBJ       170
    C113      R103      1
    C113      R119      87
    C113      R120      -87
    C113      R123      -87
    C114      OBJ       164
    C114      R103      1
    C114      R119      87
    C114      R120      -87
    C114      R121      -86
    C115      OBJ       346
    C115      R104      1
    C115      R124      -67
    C115      R125      -87
    C116      OBJ       346
    C116      R104      1
    C116      R119      87
    C116      R120      -87
    C116      R125      -87
    C117      OBJ       248
    C117      R105      1
    C117      R119      87
    C117      R120      -87
    C117      R124      -67
    C117      R125      -87
    C118      OBJ       253
    C118      R105      1
    C118      R119      87
    C118      R120      -87
    C118      R122      -87
    C118      R123      -87
    C119      OBJ       248
    C119      R105      1
    C119      R119      87
    C119      R120      -87
    C119      R122      -60
    C119      R123      -60
    C119      R124      -27
    C119      R125      -27
    C121      OBJ       346
    C121      R106      1
    C121      R123      -80
    C122      OBJ       346
    C122      R106      1
    C122      R121      -80
    C123      OBJ       346
    C123      R106      1
    C123      R124      -20
    C123      R125      -20
    C123      R127      -3
    C124      OBJ       160
    C124      R107      1
    C124      R124      -67
    C124      R125      -80
    C125      OBJ       161
    C125      R107      1
    C125      R122      -80
    C125      R123      -80
    C126      OBJ       160
    C126      R107      1
    C126      R122      -23
    C126      R123      -23
    C126      R124      -47
    C126      R125      -57
    C127      OBJ       160
    C127      R107      1
    C127      R119      85
    C127      R120      -85
    C127      R125      -85
    C128      OBJ       161
    C128      R107      1
    C128      R119      85
    C128      R120      -85
    C128      R123      -85
    C129      OBJ       160
    C129      R107      1
    C129      R119      85
    C129      R120      -85
    C129      R123      -28
    C129      R125      -57
    C130      OBJ       160
    C130      R107      1
    C130      R124      -20
    C130      R125      -20
    C130      R126      -1
    C130      R127      -3
    C132      OBJ       278
    C132      R108      1
    C132      R124      -67
    C132      R125      -70
    C133      OBJ       278
    C133      R108      1
    C133      R121      -70
    C134      OBJ       86
    C134      R109      1
    C134      R122      -66
    C134      R123      -66
    C135      OBJ       86
    C135      R109      1
    C135      R126      -1
    C135      R127      -3
    C136      OBJ       86
    C136      R109      1
    C136      R119      66
    C136      R120      -66
    C136      R124      -47
    C136      R125      -66
    C137      OBJ       86
    C137      R109      1
    C137      R119      66
    C137      R120      -66
    C137      R123      -66
    C138      OBJ       86
    C138      R109      1
    C138      R119      66
    C138      R120      -66
    C138      R121      -66
    C139      OBJ       86
    C139      R119      66
    C139      R120      -66
    C139      R122      -66
    C139      R123      -66
    C140      OBJ       188
    C140      R110      1
    C140      R122      -66
    C140      R123      -66
    C141      OBJ       188
    C141      R110      1
    C141      R119      66
    C141      R120      -66
    C141      R124      -47
    C141      R125      -66
    C142      OBJ       188
    C142      R110      1
    C142      R119      66
    C142      R120      -66
    C142      R121      -66
    C143      OBJ       85
    C143      R111      1
    C143      R122      -65
    C143      R123      -65
    C144      OBJ       85
    C144      R111      1
    C144      R126      -1
    C144      R127      -3
    C145      OBJ       85
    C145      R111      1
    C145      R119      65
    C145      R120      -65
    C145      R124      -47
    C145      R125      -65
    C146      OBJ       85
    C146      R111      1
    C146      R119      65
    C146      R120      -65
    C146      R123      -65
    C147      OBJ       85
    C147      R111      1
    C147      R119      65
    C147      R120      -65
    C147      R121      -65
    C148      OBJ       78
    C148      R112      1
    C148      R122      -60
    C148      R123      -60
    C149      OBJ       78
    C149      R112      1
    C149      R119      60
    C149      R120      -60
    C149      R124      -47
    C149      R125      -60
    C150      OBJ       78
    C150      R112      1
    C150      R119      60
    C150      R120      -60
    C150      R121      -60
    C151      OBJ       78
    C151      R112      1
    C151      R128      -1
    C152      OBJ       78
    C152      R113      1
    C152      R122      -60
    C152      R123      -60
    C153      OBJ       78
    C153      R113      1
    C153      R126      -1
    C153      R127      -3
    C154      OBJ       78
    C154      R113      1
    C154      R119      60
    C154      R120      -60
    C154      R124      -47
    C154      R125      -60
    C155      OBJ       78
    C155      R113      1
    C155      R119      60
    C155      R120      -60
    C155      R123      -60
    C156      OBJ       78
    C156      R113      1
    C156      R119      60
    C156      R120      -60
    C156      R121      -60
    C157      OBJ       171
    C157      R114      1
    C157      R122      -60
    C157      R123      -60
    C158      OBJ       171
    C158      R114      1
    C158      R126      -1
    C158      R127      -3
    C159      OBJ       171
    C159      R114      1
    C159      R119      60
    C159      R120      -60
    C159      R123      -60
    C160      OBJ       171
    C160      R114      1
    C160      R119      60
    C160      R120      -60
    C160      R121      -60
    C161      OBJ       163
    C161      R115      1
    C161      R119      57
    C161      R120      -57
    C161      R124      -47
    C161      R125      -57
    C162      OBJ       163
    C162      R115      1
    C162      R119      57
    C162      R120      -57
    C162      R122      -57
    C162      R123      -57
    C163      OBJ       163
    C163      R115      1
    C163      R128      -1
    C164      OBJ       69
    C164      R116      1
    C164      R119      53
    C164      R120      -53
    C164      R124      -47
    C164      R125      -53
    C165      OBJ       69
    C165      R116      1
    C165      R119      53
    C165      R120      -53
    C165      R122      -53
    C165      R123      -53
    C166      OBJ       183
    C166      R117      1
    C166      R118      -1
    C167      OBJ       183
    C167      R117      1
    C167      R124      -40
    C167      R125      -46
    C168      OBJ       183
    C168      R117      1
    C168      R119      46
    C168      R120      -46
    C168      R125      -46
    C169      OBJ       183
    C169      R117      1
    C169      R119      46
    C169      R120      -46
    C169      R123      -46
    C170      OBJ       49
    C170      R119      38
    C170      R120      -38
    C170      R122      -38
    C170      R123      -38
    C172      OBJ       258
    C172      R118      -1
    C174      OBJ       250
    C174      R126      -1
    C174      R127      -2
    C175      OBJ       500
    C175      R126      -1
    C175      R127      -3
    C176      OBJ       250
    C176      R127      -2
    C178      OBJ       159
    C178      R119      40
    C178      R120      -40
    C178      R124      -40
    C178      R125      -40
    C179      OBJ       318
    C179      R119      80
    C179      R120      -80
    C179      R124      -67
    C179      R125      -80
    C180      OBJ       159
    C180      R119      40
    C180      R120      -40
    C180      R125      -40
    C182      OBJ       159
    C182      R119      40
    C182      R120      -40
    C182      R122      -40
    C182      R123      -40
    C184      OBJ       159
    C184      R119      40
    C184      R120      -40
    C184      R123      -40
    C186      OBJ       114
    C186      R119      40
    C186      R120      -40
    C186      R121      -40
    C189      OBJ       318
    C189      R128      -1
    MARKER    'MARKER'                 'INTEND'
RHS
    RHS1      R101      1
    RHS1      R102      1
    RHS1      R103      1
    RHS1      R104      1
    RHS1      R105      1
    RHS1      R106      1
    RHS1      R107      1
    RHS1      R108      1
    RHS1      R109      1
    RHS1      R110      1
    RHS1      R111      1
    RHS1      R112      1
    RHS1      R113      1
    RHS1      R114      1
    RHS1      R115      1
    RHS1      R116      1
    RHS1      R117      1
    RHS1      R118      -1
    RHS1      R119      540
    RHS1      R120      -520
    RHS1      R121      -126
    RHS1      R122      -180
    RHS1      R123      -332
    RHS1      R124      -67
    RHS1      R125      -206
    RHS1      R126      -1
    RHS1      R127      -5
    RHS1      R128      -1
BOUNDS
 BV BND1      C101    
 BV BND1      C102    
 BV BND1      C103    
 BV BND1      C104    
 BV BND1      C105    
 BV BND1      C106    
 BV BND1      C107    
 BV BND1      C108    
 BV BND1      C109    
 BV BND1      C111    
 BV BND1      C112    
 BV BND1      C113    
 BV BND1      C114    
 BV BND1      C115    
 BV BND1      C116    
 BV BND1      C117    
 BV BND1      C118    
 BV BND1      C119    
 BV BND1      C121    
 BV BND1      C122    
 BV BND1      C123    
 BV BND1      C124    
 BV BND1      C125    
 BV BND1      C126    
 BV BND1      C127    
 BV BND1      C128    
 BV BND1      C129    
 BV BND1      C130    
 BV BND1      C132    
 BV BND1      C133    
 BV BND1      C134    
 BV BND1      C135    
 BV BND1      C136    
 BV BND1      C137    
 BV BND1      C138    
 BV BND1      C139    
 BV BND1      C140    
 BV BND1      C141    
 BV BND1      C142    
 BV BND1      C143    
 BV BND1      C144    
 BV BND1      C145    
 BV BND1      C146    
 BV BND1      C147    
 BV BND1      C148    
 BV BND1      C149    
 BV BND1      C150    
 BV BND1      C151    
 BV BND1      C152    
 BV BND1      C153    
 BV BND1      C154    
 BV BND1      C155    
 BV BND1      C156    
 BV BND1      C157    
 BV BND1      C158    
 BV BND1      C159    
 BV BND1      C160    
 BV BND1      C161    
 BV BND1      C162    
 BV BND1      C163    
 BV BND1      C164    
 BV BND1      C165    
 BV BND1      C166    
 BV BND1      C167    
 BV BND1      C168    
 BV BND1      C169    
 BV BND1      C170    
 BV BND1      C172    
 BV BND1      C174    
 BV BND1      C175    
 UP BND1      C176      3
 BV BND1      C178    
 BV BND1      C179    
 UP BND1      C180      3
 UP BND1      C182      3
 UP BND1      C184      3
 UP BND1      C186      3
 BV BND1      C189    
ENDATA
